s 求解结果: 1
t 759
v 1 -2 4 6 -8 9 10 -11 -12 -13 -15 17 18 19 20 -21 -22 -23 27 -28 -29 31 -32 -33 -35 -36 37 39 40 -41 42 -44 -45 49 50 51 -52 -55 57 58 60 -62 -63 -64 65 -66 67 69 70 72 73 75 76 78 79 80 -81 82 -83 86 91 92 95 -96 -100 104 108 -110 111 112 117 -119 124 125 -132 133 137 -138 141 -145 -147 149 156 -160 163 175 176 -177 186 -187 189 193 -195 